(set-info :smt-lib-version 2.6)
(set-logic QF_LIA)
(set-info :category "industrial")
(set-info :status sat)
(declare-fun x0 () Int)
(declare-fun x1 () Int)
(declare-fun x2 () Int)
(declare-fun x3 () Int)
(declare-fun x4 () Int)
(declare-fun x5 () Int)
(declare-fun x6 () Int)
(declare-fun x7 () Int)
(declare-fun x8 () Int)
(declare-fun x9 () Int)
(assert (let ((?v_6 (* 1 x1)) (?v_1 (* 0 x3)) (?v_8 (* 1 x7)) (?v_10 (* 1 x2)) (?v_4 (* 0 x6)) (?v_5 (* 0 x8)) (?v_9 (* 0 x7)) (?v_12 (* 1 x5)) (?v_16 (* 1 x3)) (?v_14 (* 0 x9)) (?v_11 (* 1 x0)) (?v_15 (* 1 x6)) (?v_13 (* 1 x8)) (?v_0 (* (- 1) x0)) (?v_3 (* (- 1) x2)) (?v_2 (* (- 1) x1)) (?v_7 (* (- 1) x9))) (and (<= (+ ?v_0 (+ ?v_3 (+ ?v_6 (+ ?v_1 (+ ?v_8 (* 2 x9)))))) 0) (<= (+ ?v_0 (+ ?v_2 (+ ?v_10 (+ ?v_1 (+ ?v_4 (+ ?v_5 (+ ?v_7 ?v_9))))))) 0) (<= (+ ?v_2 (+ ?v_3 (+ ?v_4 (+ (* (- 1) x7) (+ ?v_5 (* 2 x0)))))) (- 1)) (<= (+ ?v_4 (+ ?v_6 (+ (* 1 x4) (+ ?v_12 (+ ?v_5 (+ ?v_7 ?v_8)))))) (- 1)) (<= (+ ?v_2 (+ ?v_4 (+ ?v_16 (+ ?v_9 (+ ?v_14 (* 3 x0)))))) (- 1)) (<= (+ (* 0 x4) (+ ?v_9 (+ ?v_11 (+ ?v_6 (+ ?v_10 (+ ?v_15 ?v_13)))))) 0) (<= (+ ?v_2 (+ (* 0 x2) (+ ?v_1 (+ ?v_4 (+ ?v_9 (+ ?v_5 ?v_11)))))) 1) (<= (+ ?v_2 (+ ?v_10 (+ ?v_4 (+ ?v_12 (+ ?v_9 ?v_13))))) 0) (<= (+ ?v_3 (+ ?v_14 (+ ?v_11 (+ ?v_15 (+ (* 2 x3) ?v_8))))) 0) (<= (+ ?v_3 (+ (* (- 2) x6) (+ ?v_16 (+ ?v_12 (* 1 x9))))) 0))))
(check-sat)
(exit)
